10	6	4.0
2 3 3 5 5 6 6 7 4 1 7 2 7 4 3 6 4
2 2 3 9 5 7 6 1 1 2 9 3 7 4 4 5 7 6 5
2 6 1 5 2 3 3 1 4 5 5 9 6 6 6 1 1 2 3 3 9 4 5 5 5 6 3
2 2 3 8 5 9 1 1 7
2 3 3 2 5 3 6 7 3 3 3 5 7 6 4
2 6 1 2 2 4 3 3 4 6 5 1 6 8 5 1 4 2 6 3 4 4 5 6 1
2 6 1 7 2 9 3 9 4 4 5 3 6 9 4 1 3 4 8 5 6 6 6
2 4 1 3 3 7 4 6 5 7 2 2 3 3 2
2 5 1 6 2 6 3 9 4 1 5 4 5 1 9 2 5 3 2 4 4 5 4
2 1 2 4 6 1 4 2 6 3 2 4 3 5 4 6 4
